NAME: sim-grid-B-40
TYPE: TSP
COMMENT: Semi-regular Grid
DIMENSION: 40
EDGE_WEIGHT_TYPE: EUC_2D
NODE_COORD_SECTION
1 50 50
2 200 50
3 400 50
4 550 50
5 750 50
6 900 50
7 1450 50
8 50 150
9 400 150
10 550 150
11 750 150
12 900 150
13 1100 150
14 1250 150
15 1450 150
16 50 300
17 250 300
18 600 300
19 750 300
20 950 300
21 1100 300
22 1300 300
23 50 400
24 250 400
25 400 400
26 600 400
27 750 400
28 1100 400
29 1300 400
30 1450 400
31 250 550
32 400 550
33 600 550
34 750 550
35 1300 550
36 1450 550
37 250 650
38 400 650
39 1300 650
40 1450 650
EOF
